letting n =  10
letting blocks =  [[1, 2], [1, 3], [1, 4], [1, 6], [1, 9], [1, 10], [2, 3], [2, 4], [2, 5], [2, 7], [2, 9], [2, 10], [3, 1], [3, 2], [3, 4], [3, 6], [3, 8], [4, 1], [4, 2], [4, 3], [4, 6], [4, 7], [4, 8], [5, 1], [5, 2], [5, 4], [5, 5], [5, 8], [5, 10], [6, 2], [6, 3], [6, 5], [6, 6], [6, 7], [6, 10], [7, 1], [7, 4], [7, 5], [8, 2], [8, 7], [8, 9], [8, 10], [9, 1], [9, 5], [9, 6], [9, 9], [10, 4], [10, 5], [10, 6], [10, 7], [10, 9], [10, 10]]
